JulietBench/Juliet_Based_Patch_Bench/linux/CWE-189-Numeric-Errors/CVE_2010_4160_8acfe468b0384e834a303f08ebc4953d72fb690a/Resultiov_from_user_compat_to_kern_Snippet_patch2EQ.smt2
; benchmark generated from python API
(set-info :status unknown)
(declare-fun R () (_ BitVec 32))
(declare-fun rdi () (_ BitVec 64))
(assert
 (let (($x24 (= (_ bv4294967295 32) R)))
 (let ((?x6 ((_ extract 31 0) rdi)))
 (let ((?x11 (bvadd (_ bv4294967295 32) ?x6)))
 (let (($x15 (= R ?x11)))
 (and $x15 $x24))))))
(check-sat)
